rand 50 2 230 99999
2 2 2 2 2 2 2 2 2 2 2 2 2 2 2 2 2 2 2 2 2 2 2 2 2 2 2 2 2 2 2 2 2 2 2 2 2 2 2 2 2 2 2 2 2 2 2 2 2 2
3 26 36 23 0 8
0 0 0 7
0 0 1 52
0 1 0 20
0 1 1 53
1 0 0 87
1 0 1 56
1 1 0 43
1 1 1 92
3 10 35 46 0 8
0 0 0 75
0 0 1 15
0 1 0 20
0 1 1 20
1 0 0 100
1 0 1 86
1 1 0 14
1 1 1 13
3 12 38 30 0 8
0 0 0 6
0 0 1 80
0 1 0 71
0 1 1 27
1 0 0 77
1 0 1 85
1 1 0 52
1 1 1 90
3 32 3 21 0 8
0 0 0 73
0 0 1 73
0 1 0 61
0 1 1 83
1 0 0 20
1 0 1 17
1 1 0 40
1 1 1 46
3 2 29 22 0 8
0 0 0 85
0 0 1 55
0 1 0 5
0 1 1 7
1 0 0 39
1 0 1 35
1 1 0 42
1 1 1 22
2 24 28 0 4
0 0 20
0 1 58
1 0 61
1 1 24
2 3 30 0 4
0 0 74
0 1 21
1 0 68
1 1 99
2 10 6 0 4
0 0 60
0 1 83
1 0 75
1 1 18
2 40 38 0 4
0 0 23
0 1 6
1 0 95
1 1 96
3 16 4 44 0 8
0 0 0 64
0 0 1 13
0 1 0 54
0 1 1 86
1 0 0 86
1 0 1 13
1 1 0 17
1 1 1 50
3 9 42 11 0 8
0 0 0 46
0 0 1 11
0 1 0 92
0 1 1 56
1 0 0 88
1 0 1 24
1 1 0 68
1 1 1 56
3 33 35 25 0 8
0 0 0 9
0 0 1 28
0 1 0 78
0 1 1 76
1 0 0 67
1 0 1 95
1 1 0 38
1 1 1 93
3 8 42 31 0 8
0 0 0 52
0 0 1 21
0 1 0 45
0 1 1 23
1 0 0 17
1 0 1 97
1 1 0 25
1 1 1 20
2 44 37 0 4
0 0 24
0 1 87
1 0 99
1 1 100
2 3 12 0 4
0 0 43
0 1 60
1 0 45
1 1 70
2 16 27 0 4
0 0 70
0 1 76
1 0 81
1 1 100
3 24 49 38 0 8
0 0 0 26
0 0 1 38
0 1 0 55
0 1 1 37
1 0 0 37
1 0 1 18
1 1 0 76
1 1 1 48
2 18 27 0 4
0 0 87
0 1 49
1 0 83
1 1 96
3 43 12 39 0 8
0 0 0 12
0 0 1 98
0 1 0 12
0 1 1 41
1 0 0 62
1 0 1 22
1 1 0 96
1 1 1 90
2 40 12 0 4
0 0 4
0 1 80
1 0 45
1 1 57
3 11 3 35 0 8
0 0 0 36
0 0 1 83
0 1 0 23
0 1 1 35
1 0 0 50
1 0 1 47
1 1 0 18
1 1 1 21
2 43 11 0 4
0 0 30
0 1 35
1 0 34
1 1 2
2 8 43 0 4
0 0 60
0 1 31
1 0 1
1 1 1
3 32 14 23 0 8
0 0 0 98
0 0 1 61
0 1 0 5
0 1 1 40
1 0 0 0
1 0 1 76
1 1 0 72
1 1 1 64
2 10 23 0 4
0 0 50
0 1 82
1 0 54
1 1 8
3 48 9 4 0 8
0 0 0 88
0 0 1 76
0 1 0 15
0 1 1 49
1 0 0 43
1 0 1 28
1 1 0 3
1 1 1 97
3 0 34 28 0 8
0 0 0 23
0 0 1 51
0 1 0 57
0 1 1 86
1 0 0 100
1 0 1 100
1 1 0 11
1 1 1 49
3 3 25 19 0 8
0 0 0 72
0 0 1 53
0 1 0 56
0 1 1 15
1 0 0 74
1 0 1 56
1 1 0 20
1 1 1 26
3 34 5 15 0 8
0 0 0 7
0 0 1 7
0 1 0 36
0 1 1 77
1 0 0 27
1 0 1 15
1 1 0 49
1 1 1 99
2 43 47 0 4
0 0 18
0 1 68
1 0 10
1 1 49
2 6 47 0 4
0 0 18
0 1 26
1 0 31
1 1 88
3 33 10 46 0 8
0 0 0 16
0 0 1 20
0 1 0 3
0 1 1 19
1 0 0 43
1 0 1 29
1 1 0 56
1 1 1 95
3 33 19 15 0 8
0 0 0 73
0 0 1 21
0 1 0 29
0 1 1 5
1 0 0 90
1 0 1 99
1 1 0 62
1 1 1 62
2 2 47 0 4
0 0 82
0 1 42
1 0 72
1 1 7
3 1 36 21 0 8
0 0 0 100
0 0 1 53
0 1 0 93
0 1 1 71
1 0 0 5
1 0 1 9
1 1 0 97
1 1 1 74
3 49 17 47 0 8
0 0 0 76
0 0 1 9
0 1 0 0
0 1 1 44
1 0 0 37
1 0 1 14
1 1 0 68
1 1 1 70
2 48 38 0 4
0 0 72
0 1 82
1 0 94
1 1 2
2 45 30 0 4
0 0 89
0 1 99
1 0 77
1 1 59
2 32 10 0 4
0 0 82
0 1 45
1 0 22
1 1 80
2 34 35 0 4
0 0 67
0 1 25
1 0 72
1 1 36
3 8 36 5 0 8
0 0 0 54
0 0 1 51
0 1 0 22
0 1 1 71
1 0 0 40
1 0 1 88
1 1 0 27
1 1 1 86
3 40 32 13 0 8
0 0 0 53
0 0 1 9
0 1 0 26
0 1 1 65
1 0 0 25
1 0 1 90
1 1 0 45
1 1 1 92
3 41 43 36 0 8
0 0 0 44
0 0 1 69
0 1 0 41
0 1 1 3
1 0 0 32
1 0 1 82
1 1 0 39
1 1 1 53
2 30 31 0 4
0 0 9
0 1 79
1 0 54
1 1 78
2 33 19 0 4
0 0 91
0 1 91
1 0 46
1 1 82
2 4 36 0 4
0 0 82
0 1 77
1 0 49
1 1 27
2 24 42 0 4
0 0 11
0 1 88
1 0 85
1 1 77
3 43 22 7 0 8
0 0 0 14
0 0 1 26
0 1 0 20
0 1 1 55
1 0 0 83
1 0 1 48
1 1 0 12
1 1 1 65
2 36 5 0 4
0 0 98
0 1 96
1 0 60
1 1 64
3 34 12 23 0 8
0 0 0 0
0 0 1 75
0 1 0 8
0 1 1 50
1 0 0 39
1 0 1 15
1 1 0 83
1 1 1 83
3 42 20 46 0 8
0 0 0 41
0 0 1 73
0 1 0 26
0 1 1 63
1 0 0 98
1 0 1 62
1 1 0 65
1 1 1 57
3 24 1 43 0 8
0 0 0 38
0 0 1 44
0 1 0 82
0 1 1 27
1 0 0 68
1 0 1 12
1 1 0 85
1 1 1 34
2 44 23 0 4
0 0 94
0 1 99
1 0 91
1 1 68
2 26 21 0 4
0 0 92
0 1 18
1 0 19
1 1 89
3 25 11 17 0 8
0 0 0 48
0 0 1 22
0 1 0 71
0 1 1 6
1 0 0 33
1 0 1 74
1 1 0 47
1 1 1 59
3 9 26 35 0 8
0 0 0 1
0 0 1 3
0 1 0 72
0 1 1 71
1 0 0 94
1 0 1 41
1 1 0 59
1 1 1 5
2 11 20 0 4
0 0 91
0 1 94
1 0 23
1 1 23
3 1 9 14 0 8
0 0 0 18
0 0 1 5
0 1 0 78
0 1 1 62
1 0 0 62
1 0 1 89
1 1 0 54
1 1 1 64
3 2 22 47 0 8
0 0 0 62
0 0 1 22
0 1 0 48
0 1 1 29
1 0 0 28
1 0 1 82
1 1 0 10
1 1 1 70
3 16 6 15 0 8
0 0 0 20
0 0 1 22
0 1 0 77
0 1 1 95
1 0 0 75
1 0 1 22
1 1 0 64
1 1 1 96
2 9 22 0 4
0 0 60
0 1 74
1 0 89
1 1 32
2 29 23 0 4
0 0 40
0 1 56
1 0 66
1 1 3
2 29 21 0 4
0 0 37
0 1 8
1 0 62
1 1 36
3 49 37 15 0 8
0 0 0 37
0 0 1 43
0 1 0 42
0 1 1 33
1 0 0 97
1 0 1 100
1 1 0 85
1 1 1 34
3 35 19 45 0 8
0 0 0 5
0 0 1 72
0 1 0 27
0 1 1 82
1 0 0 1
1 0 1 11
1 1 0 64
1 1 1 93
3 48 34 30 0 8
0 0 0 7
0 0 1 11
0 1 0 13
0 1 1 93
1 0 0 87
1 0 1 52
1 1 0 23
1 1 1 0
2 34 30 0 4
0 0 17
0 1 64
1 0 48
1 1 32
3 16 1 46 0 8
0 0 0 35
0 0 1 8
0 1 0 23
0 1 1 64
1 0 0 57
1 0 1 32
1 1 0 31
1 1 1 52
3 28 37 39 0 8
0 0 0 60
0 0 1 66
0 1 0 39
0 1 1 3
1 0 0 43
1 0 1 39
1 1 0 96
1 1 1 86
3 41 28 21 0 8
0 0 0 71
0 0 1 80
0 1 0 32
0 1 1 10
1 0 0 89
1 0 1 0
1 1 0 8
1 1 1 30
2 17 26 0 4
0 0 95
0 1 53
1 0 44
1 1 14
2 18 29 0 4
0 0 11
0 1 100
1 0 99
1 1 51
3 16 46 47 0 8
0 0 0 85
0 0 1 17
0 1 0 92
0 1 1 11
1 0 0 46
1 0 1 92
1 1 0 51
1 1 1 3
2 19 7 0 4
0 0 92
0 1 62
1 0 64
1 1 92
3 9 11 20 0 8
0 0 0 72
0 0 1 42
0 1 0 1
0 1 1 53
1 0 0 16
1 0 1 47
1 1 0 16
1 1 1 2
2 26 22 0 4
0 0 11
0 1 18
1 0 33
1 1 83
3 16 19 47 0 8
0 0 0 21
0 0 1 79
0 1 0 55
0 1 1 16
1 0 0 5
1 0 1 87
1 1 0 12
1 1 1 57
2 22 14 0 4
0 0 12
0 1 51
1 0 91
1 1 45
2 21 14 0 4
0 0 66
0 1 95
1 0 53
1 1 57
3 13 38 7 0 8
0 0 0 13
0 0 1 90
0 1 0 22
0 1 1 50
1 0 0 59
1 0 1 67
1 1 0 40
1 1 1 84
3 12 28 22 0 8
0 0 0 61
0 0 1 31
0 1 0 65
0 1 1 17
1 0 0 78
1 0 1 25
1 1 0 72
1 1 1 79
2 1 21 0 4
0 0 95
0 1 26
1 0 53
1 1 80
3 49 15 7 0 8
0 0 0 67
0 0 1 41
0 1 0 3
0 1 1 10
1 0 0 9
1 0 1 28
1 1 0 64
1 1 1 41
2 49 22 0 4
0 0 23
0 1 42
1 0 42
1 1 3
3 49 20 36 0 8
0 0 0 98
0 0 1 41
0 1 0 84
0 1 1 20
1 0 0 23
1 0 1 54
1 1 0 50
1 1 1 87
2 26 14 0 4
0 0 62
0 1 57
1 0 21
1 1 1
3 17 35 44 0 8
0 0 0 58
0 0 1 44
0 1 0 51
0 1 1 71
1 0 0 29
1 0 1 12
1 1 0 9
1 1 1 9
3 16 18 26 0 8
0 0 0 37
0 0 1 10
0 1 0 91
0 1 1 50
1 0 0 29
1 0 1 24
1 1 0 78
1 1 1 54
3 17 34 22 0 8
0 0 0 11
0 0 1 37
0 1 0 33
0 1 1 97
1 0 0 20
1 0 1 2
1 1 0 32
1 1 1 33
2 46 15 0 4
0 0 4
0 1 56
1 0 52
1 1 65
3 41 6 39 0 8
0 0 0 14
0 0 1 40
0 1 0 92
0 1 1 85
1 0 0 63
1 0 1 90
1 1 0 1
1 1 1 65
3 21 27 45 0 8
0 0 0 20
0 0 1 5
0 1 0 2
0 1 1 89
1 0 0 56
1 0 1 45
1 1 0 53
1 1 1 67
3 5 21 15 0 8
0 0 0 78
0 0 1 8
0 1 0 31
0 1 1 56
1 0 0 25
1 0 1 67
1 1 0 13
1 1 1 40
2 5 6 0 4
0 0 73
0 1 75
1 0 10
1 1 22
3 1 49 33 0 8
0 0 0 44
0 0 1 10
0 1 0 8
0 1 1 75
1 0 0 41
1 0 1 14
1 1 0 18
1 1 1 74
2 1 34 0 4
0 0 7
0 1 78
1 0 27
1 1 35
2 4 22 0 4
0 0 91
0 1 15
1 0 83
1 1 99
2 36 47 0 4
0 0 83
0 1 93
1 0 5
1 1 39
2 11 7 0 4
0 0 67
0 1 75
1 0 52
1 1 55
2 32 40 0 4
0 0 66
0 1 20
1 0 29
1 1 38
3 46 25 38 0 8
0 0 0 35
0 0 1 57
0 1 0 54
0 1 1 50
1 0 0 31
1 0 1 35
1 1 0 2
1 1 1 86
3 33 36 25 0 8
0 0 0 68
0 0 1 29
0 1 0 98
0 1 1 69
1 0 0 13
1 0 1 41
1 1 0 11
1 1 1 69
3 9 22 39 0 8
0 0 0 83
0 0 1 57
0 1 0 90
0 1 1 51
1 0 0 94
1 0 1 77
1 1 0 78
1 1 1 57
2 28 31 0 4
0 0 74
0 1 84
1 0 40
1 1 64
3 17 21 47 0 8
0 0 0 91
0 0 1 31
0 1 0 73
0 1 1 37
1 0 0 3
1 0 1 96
1 1 0 5
1 1 1 49
2 40 22 0 4
0 0 24
0 1 76
1 0 68
1 1 18
3 0 11 20 0 8
0 0 0 52
0 0 1 15
0 1 0 47
0 1 1 72
1 0 0 0
1 0 1 93
1 1 0 27
1 1 1 36
2 14 31 0 4
0 0 68
0 1 69
1 0 2
1 1 91
2 45 31 0 4
0 0 99
0 1 40
1 0 32
1 1 84
2 32 25 0 4
0 0 86
0 1 16
1 0 94
1 1 2
3 9 34 4 0 8
0 0 0 22
0 0 1 5
0 1 0 90
0 1 1 20
1 0 0 34
1 0 1 45
1 1 0 56
1 1 1 88
3 27 23 47 0 8
0 0 0 29
0 0 1 79
0 1 0 18
0 1 1 31
1 0 0 13
1 0 1 65
1 1 0 30
1 1 1 33
2 27 39 0 4
0 0 60
0 1 46
1 0 54
1 1 23
3 10 38 7 0 8
0 0 0 41
0 0 1 6
0 1 0 12
0 1 1 86
1 0 0 31
1 0 1 75
1 1 0 35
1 1 1 6
2 28 6 0 4
0 0 70
0 1 90
1 0 95
1 1 93
3 49 46 39 0 8
0 0 0 17
0 0 1 8
0 1 0 65
0 1 1 35
1 0 0 74
1 0 1 15
1 1 0 93
1 1 1 50
3 35 28 15 0 8
0 0 0 70
0 0 1 64
0 1 0 29
0 1 1 64
1 0 0 13
1 0 1 64
1 1 0 20
1 1 1 29
3 37 21 38 0 8
0 0 0 31
0 0 1 69
0 1 0 10
0 1 1 78
1 0 0 92
1 0 1 29
1 1 0 87
1 1 1 65
3 48 36 23 0 8
0 0 0 82
0 0 1 97
0 1 0 84
0 1 1 75
1 0 0 32
1 0 1 61
1 1 0 61
1 1 1 70
3 9 21 30 0 8
0 0 0 67
0 0 1 73
0 1 0 54
0 1 1 3
1 0 0 53
1 0 1 61
1 1 0 75
1 1 1 98
2 16 1 0 4
0 0 100
0 1 69
1 0 13
1 1 67
3 42 39 31 0 8
0 0 0 12
0 0 1 46
0 1 0 48
0 1 1 88
1 0 0 5
1 0 1 48
1 1 0 81
1 1 1 100
3 48 16 3 0 8
0 0 0 3
0 0 1 0
0 1 0 42
0 1 1 49
1 0 0 99
1 0 1 62
1 1 0 7
1 1 1 9
2 42 30 0 4
0 0 73
0 1 22
1 0 64
1 1 41
3 0 35 45 0 8
0 0 0 39
0 0 1 45
0 1 0 78
0 1 1 54
1 0 0 6
1 0 1 60
1 1 0 66
1 1 1 17
2 9 42 0 4
0 0 80
0 1 15
1 0 25
1 1 26
2 32 9 0 4
0 0 9
0 1 57
1 0 56
1 1 13
3 17 11 44 0 8
0 0 0 100
0 0 1 11
0 1 0 7
0 1 1 44
1 0 0 44
1 0 1 25
1 1 0 32
1 1 1 53
3 4 6 15 0 8
0 0 0 0
0 0 1 80
0 1 0 46
0 1 1 30
1 0 0 81
1 0 1 53
1 1 0 52
1 1 1 20
2 48 3 0 4
0 0 41
0 1 43
1 0 24
1 1 61
3 35 19 47 0 8
0 0 0 28
0 0 1 96
0 1 0 100
0 1 1 15
1 0 0 22
1 0 1 79
1 1 0 49
1 1 1 75
3 8 9 39 0 8
0 0 0 33
0 0 1 5
0 1 0 8
0 1 1 54
1 0 0 54
1 0 1 51
1 1 0 25
1 1 1 48
3 19 37 47 0 8
0 0 0 29
0 0 1 88
0 1 0 23
0 1 1 60
1 0 0 41
1 0 1 24
1 1 0 30
1 1 1 19
2 9 5 0 4
0 0 83
0 1 81
1 0 76
1 1 71
3 48 14 22 0 8
0 0 0 98
0 0 1 93
0 1 0 47
0 1 1 43
1 0 0 29
1 0 1 39
1 1 0 8
1 1 1 98
2 1 15 0 4
0 0 93
0 1 67
1 0 82
1 1 44
3 32 1 35 0 8
0 0 0 66
0 0 1 46
0 1 0 37
0 1 1 22
1 0 0 20
1 0 1 47
1 1 0 78
1 1 1 82
3 49 21 15 0 8
0 0 0 88
0 0 1 9
0 1 0 38
0 1 1 67
1 0 0 12
1 0 1 28
1 1 0 56
1 1 1 24
3 48 29 38 0 8
0 0 0 71
0 0 1 3
0 1 0 36
0 1 1 82
1 0 0 81
1 0 1 46
1 1 0 71
1 1 1 12
2 19 29 0 4
0 0 93
0 1 56
1 0 37
1 1 99
3 25 43 47 0 8
0 0 0 93
0 0 1 42
0 1 0 74
0 1 1 36
1 0 0 87
1 0 1 88
1 1 0 74
1 1 1 26
2 48 21 0 4
0 0 2
0 1 28
1 0 34
1 1 21
3 9 44 37 0 8
0 0 0 45
0 0 1 58
0 1 0 70
0 1 1 65
1 0 0 30
1 0 1 56
1 1 0 56
1 1 1 91
3 1 31 23 0 8
0 0 0 95
0 0 1 15
0 1 0 24
0 1 1 54
1 0 0 5
1 0 1 28
1 1 0 70
1 1 1 86
2 42 39 0 4
0 0 84
0 1 51
1 0 32
1 1 62
3 44 13 7 0 8
0 0 0 75
0 0 1 44
0 1 0 61
0 1 1 44
1 0 0 93
1 0 1 85
1 1 0 19
1 1 1 90
2 40 43 0 4
0 0 46
0 1 91
1 0 47
1 1 51
3 17 14 7 0 8
0 0 0 85
0 0 1 36
0 1 0 41
0 1 1 13
1 0 0 12
1 0 1 61
1 1 0 16
1 1 1 7
3 17 45 31 0 8
0 0 0 19
0 0 1 70
0 1 0 55
0 1 1 17
1 0 0 51
1 0 1 72
1 1 0 55
1 1 1 71
2 25 18 0 4
0 0 60
0 1 69
1 0 35
1 1 31
3 0 27 23 0 8
0 0 0 38
0 0 1 9
0 1 0 50
0 1 1 91
1 0 0 73
1 0 1 94
1 1 0 31
1 1 1 22
3 25 35 38 0 8
0 0 0 61
0 0 1 10
0 1 0 31
0 1 1 28
1 0 0 10
1 0 1 28
1 1 0 99
1 1 1 28
2 10 21 0 4
0 0 58
0 1 18
1 0 34
1 1 18
3 19 44 13 0 8
0 0 0 16
0 0 1 61
0 1 0 87
0 1 1 100
1 0 0 61
1 0 1 9
1 1 0 96
1 1 1 81
3 28 4 22 0 8
0 0 0 28
0 0 1 34
0 1 0 98
0 1 1 89
1 0 0 43
1 0 1 55
1 1 0 12
1 1 1 21
2 3 7 0 4
0 0 18
0 1 94
1 0 33
1 1 99
3 40 11 45 0 8
0 0 0 92
0 0 1 1
0 1 0 33
0 1 1 55
1 0 0 78
1 0 1 74
1 1 0 11
1 1 1 47
2 17 12 0 4
0 0 79
0 1 3
1 0 76
1 1 12
3 33 36 23 0 8
0 0 0 40
0 0 1 40
0 1 0 53
0 1 1 68
1 0 0 59
1 0 1 94
1 1 0 7
1 1 1 73
3 13 29 23 0 8
0 0 0 91
0 0 1 29
0 1 0 39
0 1 1 47
1 0 0 63
1 0 1 47
1 1 0 7
1 1 1 23
3 40 24 39 0 8
0 0 0 59
0 0 1 20
0 1 0 0
0 1 1 80
1 0 0 52
1 0 1 78
1 1 0 57
1 1 1 92
3 9 34 38 0 8
0 0 0 97
0 0 1 15
0 1 0 57
0 1 1 72
1 0 0 79
1 0 1 92
1 1 0 71
1 1 1 1
2 38 46 0 4
0 0 87
0 1 18
1 0 60
1 1 42
2 10 14 0 4
0 0 21
0 1 50
1 0 26
1 1 96
2 49 19 0 4
0 0 49
0 1 53
1 0 6
1 1 39
2 10 39 0 4
0 0 1
0 1 81
1 0 92
1 1 99
2 2 15 0 4
0 0 19
0 1 33
1 0 44
1 1 37
3 25 11 6 0 8
0 0 0 19
0 0 1 10
0 1 0 0
0 1 1 39
1 0 0 30
1 0 1 58
1 1 0 2
1 1 1 77
3 1 10 29 0 8
0 0 0 42
0 0 1 43
0 1 0 72
0 1 1 28
1 0 0 43
1 0 1 42
1 1 0 82
1 1 1 86
3 33 6 15 0 8
0 0 0 39
0 0 1 67
0 1 0 67
0 1 1 43
1 0 0 54
1 0 1 95
1 1 0 32
1 1 1 78
3 32 13 47 0 8
0 0 0 99
0 0 1 42
0 1 0 20
0 1 1 98
1 0 0 86
1 0 1 1
1 1 0 23
1 1 1 4
3 1 43 38 0 8
0 0 0 36
0 0 1 6
0 1 0 19
0 1 1 68
1 0 0 50
1 0 1 62
1 1 0 89
1 1 1 20
2 40 25 0 4
0 0 93
0 1 69
1 0 53
1 1 43
2 41 22 0 4
0 0 8
0 1 8
1 0 37
1 1 55
2 9 27 0 4
0 0 66
0 1 69
1 0 34
1 1 26
3 21 6 39 0 8
0 0 0 75
0 0 1 35
0 1 0 39
0 1 1 79
1 0 0 67
1 0 1 24
1 1 0 38
1 1 1 10
3 40 33 14 0 8
0 0 0 20
0 0 1 89
0 1 0 23
0 1 1 73
1 0 0 63
1 0 1 78
1 1 0 3
1 1 1 87
2 20 6 0 4
0 0 70
0 1 73
1 0 27
1 1 40
3 24 1 39 0 8
0 0 0 77
0 0 1 100
0 1 0 93
0 1 1 86
1 0 0 98
1 0 1 2
1 1 0 82
1 1 1 73
2 34 22 0 4
0 0 97
0 1 37
1 0 100
1 1 54
3 20 45 7 0 8
0 0 0 54
0 0 1 45
0 1 0 74
0 1 1 82
1 0 0 80
1 0 1 68
1 1 0 1
1 1 1 83
3 1 45 31 0 8
0 0 0 55
0 0 1 86
0 1 0 21
0 1 1 81
1 0 0 49
1 0 1 39
1 1 0 82
1 1 1 28
2 24 38 0 4
0 0 49
0 1 73
1 0 53
1 1 22
3 41 43 15 0 8
0 0 0 67
0 0 1 25
0 1 0 72
0 1 1 17
1 0 0 36
1 0 1 35
1 1 0 98
1 1 1 46
3 9 20 45 0 8
0 0 0 35
0 0 1 19
0 1 0 95
0 1 1 22
1 0 0 21
1 0 1 3
1 1 0 76
1 1 1 63
2 35 19 0 4
0 0 36
0 1 6
1 0 88
1 1 28
3 48 1 23 0 8
0 0 0 29
0 0 1 39
0 1 0 79
0 1 1 58
1 0 0 9
1 0 1 89
1 1 0 26
1 1 1 12
3 16 34 11 0 8
0 0 0 10
0 0 1 82
0 1 0 97
0 1 1 15
1 0 0 32
1 0 1 71
1 1 0 80
1 1 1 21
3 0 2 28 0 8
0 0 0 83
0 0 1 62
0 1 0 47
0 1 1 12
1 0 0 25
1 0 1 77
1 1 0 3
1 1 1 52
2 29 38 0 4
0 0 14
0 1 6
1 0 32
1 1 93
3 9 46 49 0 8
0 0 0 41
0 0 1 27
0 1 0 34
0 1 1 91
1 0 0 95
1 0 1 83
1 1 0 23
1 1 1 29
2 19 22 0 4
0 0 39
0 1 69
1 0 74
1 1 33
3 32 35 12 0 8
0 0 0 65
0 0 1 57
0 1 0 81
0 1 1 62
1 0 0 25
1 0 1 3
1 1 0 56
1 1 1 28
2 13 47 0 4
0 0 49
0 1 60
1 0 75
1 1 16
2 42 4 0 4
0 0 80
0 1 56
1 0 89
1 1 49
3 16 10 15 0 8
0 0 0 4
0 0 1 76
0 1 0 16
0 1 1 35
1 0 0 86
1 0 1 47
1 1 0 30
1 1 1 57
3 16 2 6 0 8
0 0 0 68
0 0 1 45
0 1 0 66
0 1 1 15
1 0 0 93
1 0 1 31
1 1 0 5
1 1 1 17
2 3 31 0 4
0 0 17
0 1 43
1 0 17
1 1 15
3 2 11 46 0 8
0 0 0 84
0 0 1 80
0 1 0 69
0 1 1 93
1 0 0 33
1 0 1 1
1 1 0 94
1 1 1 7
3 0 10 12 0 8
0 0 0 84
0 0 1 68
0 1 0 66
0 1 1 34
1 0 0 11
1 0 1 13
1 1 0 46
1 1 1 56
2 6 7 0 4
0 0 61
0 1 19
1 0 62
1 1 82
3 26 3 22 0 8
0 0 0 52
0 0 1 56
0 1 0 55
0 1 1 22
1 0 0 70
1 0 1 59
1 1 0 90
1 1 1 77
3 34 18 39 0 8
0 0 0 63
0 0 1 86
0 1 0 90
0 1 1 82
1 0 0 13
1 0 1 25
1 1 0 16
1 1 1 79
3 32 18 4 0 8
0 0 0 53
0 0 1 87
0 1 0 54
0 1 1 1
1 0 0 1
1 0 1 68
1 1 0 47
1 1 1 79
2 19 15 0 4
0 0 10
0 1 61
1 0 81
1 1 34
3 25 38 23 0 8
0 0 0 50
0 0 1 25
0 1 0 78
0 1 1 73
1 0 0 38
1 0 1 45
1 1 0 19
1 1 1 51
3 28 15 31 0 8
0 0 0 56
0 0 1 42
0 1 0 88
0 1 1 68
1 0 0 28
1 0 1 25
1 1 0 98
1 1 1 24
3 42 45 14 0 8
0 0 0 42
0 0 1 73
0 1 0 92
0 1 1 65
1 0 0 65
1 0 1 32
1 1 0 59
1 1 1 23
2 12 7 0 4
0 0 24
0 1 23
1 0 82
1 1 14
2 0 13 0 4
0 0 31
0 1 44
1 0 97
1 1 12
2 18 14 0 4
0 0 67
0 1 4
1 0 79
1 1 33
2 27 45 0 4
0 0 82
0 1 43
1 0 16
1 1 84
3 48 18 30 0 8
0 0 0 24
0 0 1 52
0 1 0 63
0 1 1 8
1 0 0 26
1 0 1 39
1 1 0 13
1 1 1 57
2 27 30 0 4
0 0 28
0 1 28
1 0 7
1 1 58
3 9 3 7 0 8
0 0 0 60
0 0 1 98
0 1 0 91
0 1 1 10
1 0 0 73
1 0 1 3
1 1 0 37
1 1 1 82
2 44 21 0 4
0 0 45
0 1 12
1 0 77
1 1 100
3 16 0 43 0 8
0 0 0 93
0 0 1 43
0 1 0 91
0 1 1 30
1 0 0 97
1 0 1 80
1 1 0 71
1 1 1 91
2 25 22 0 4
0 0 97
0 1 45
1 0 24
1 1 92
3 12 7 47 0 8
0 0 0 35
0 0 1 11
0 1 0 36
0 1 1 55
1 0 0 84
1 0 1 96
1 1 0 60
1 1 1 91
3 27 36 15 0 8
0 0 0 96
0 0 1 11
0 1 0 45
0 1 1 89
1 0 0 1
1 0 1 8
1 1 0 79
1 1 1 23
3 49 42 13 0 8
0 0 0 35
0 0 1 95
0 1 0 90
0 1 1 57
1 0 0 90
1 0 1 32
1 1 0 99
1 1 1 44
2 16 47 0 4
0 0 20
0 1 52
1 0 61
1 1 81
3 34 26 45 0 8
0 0 0 81
0 0 1 6
0 1 0 87
0 1 1 8
1 0 0 9
1 0 1 48
1 1 0 44
1 1 1 39
3 27 33 43 0 8
0 0 0 87
0 0 1 71
0 1 0 13
0 1 1 10
1 0 0 50
1 0 1 86
1 1 0 62
1 1 1 74
2 20 15 0 4
0 0 49
0 1 27
1 0 15
1 1 95
2 40 20 0 4
0 0 59
0 1 54
1 0 17
1 1 74
3 37 29 6 0 8
0 0 0 5
0 0 1 14
0 1 0 11
0 1 1 70
1 0 0 6
1 0 1 75
1 1 0 93
1 1 1 8
2 0 42 0 4
0 0 35
0 1 10
1 0 97
1 1 57
2 21 6 0 4
0 0 83
0 1 22
1 0 74
1 1 41
3 42 20 47 0 8
0 0 0 73
0 0 1 78
0 1 0 62
0 1 1 34
1 0 0 100
1 0 1 2
1 1 0 29
1 1 1 95
